(set-logic ALL)
(get-model)
(declare-const BAV1 Bool)
(declare-const GEN2 (_ BitVec 3))
(declare-const GEN1 (_ BitVec 3))
(declare-fun x0 () (_ BitVec 3))
(assert (not (= GEN1 x0)))
(assert (bvult GEN2 x0))
(assert (= BAV1 (= GEN1 x0)))
(check-sat)
(get-model)
(check-sat)